
<<< setup


<<< generate

Version identifier: 22.1.1.0 | 2022-11-28 | 9160aff4d
CPXPARAM_TimeLimit                               1800
Found incumbent of value 0.000000 after 0.00 sec. (0.01 ticks)
Tried aggregator 6 times.
MIP Presolve eliminated 342 rows and 43 columns.
MIP Presolve modified 86 coefficients.
Aggregator did 128 substitutions.
Reduced MIP has 119 rows, 229 columns, and 780 nonzeros.
Reduced MIP has 229 binaries, 0 generals, 0 SOSs, and 0 indicators.
Presolve time = 0.00 sec. (2.81 ticks)
Probing time = 0.00 sec. (0.51 ticks)
Tried aggregator 3 times.
MIP Presolve eliminated 15 rows and 1 columns.
MIP Presolve modified 3 coefficients.
Aggregator did 72 substitutions.
Reduced MIP has 32 rows, 156 columns, and 512 nonzeros.
Reduced MIP has 156 binaries, 0 generals, 0 SOSs, and 0 indicators.
Presolve time = 0.00 sec. (0.94 ticks)
Probing time = 0.00 sec. (0.29 ticks)
Tried aggregator 1 time.
Detecting symmetries...
Reduced MIP has 32 rows, 156 columns, and 512 nonzeros.
Reduced MIP has 156 binaries, 0 generals, 0 SOSs, and 0 indicators.
Presolve time = 0.00 sec. (0.52 ticks)
Probing time = 0.00 sec. (0.28 ticks)
Clique table members: 32.
MIP emphasis: balance optimality and feasibility.
MIP search method: dynamic search.
Parallel mode: deterministic, using up to 8 threads.
Root relaxation solution time = 0.00 sec. (0.57 ticks)

        Nodes                                         Cuts/
   Node  Left     Objective  IInf  Best Integer    Best Bound    ItCnt     Gap

*     0+    0                            0.0000      294.0000              --- 
*     0+    0                           17.0000      294.0000              --- 
      0     0        cutoff             17.0000       17.0000      102    0.00%
      0     0        cutoff             17.0000       17.0000      102    0.00%
Elapsed time = 0.01 sec. (6.54 ticks, tree = 0.01 MB, solutions = 1)

Root node processing (before b&c):
  Real time             =    0.01 sec. (6.55 ticks)
Parallel b&c, 8 threads:
  Real time             =    0.00 sec. (0.00 ticks)
  Sync time (average)   =    0.00 sec.
  Wait time (average)   =    0.00 sec.
                          ------------
Total (root+branch&cut) =    0.01 sec. (6.55 ticks)

<<< solve


OBJECTIVE: 17

<<< post process


<<< done

